numerics/lpfeastol = 1e-08
presolving:
(round 1, fast)       61 del vars, 153 del conss, 0 add conss, 116 chg bounds, 0 chg sides, 0 chg coeffs, 12 upgd conss, 0 impls, 24 clqs
(round 2, fast)       73 del vars, 165 del conss, 0 add conss, 116 chg bounds, 0 chg sides, 0 chg coeffs, 12 upgd conss, 0 impls, 24 clqs
(round 3, exhaustive) 73 del vars, 165 del conss, 0 add conss, 116 chg bounds, 0 chg sides, 0 chg coeffs, 48 upgd conss, 0 impls, 24 clqs
   (0.0s) probing: 51/92 (55.4%) - 0 fixings, 0 aggregations, 0 implications, 0 bound changes
   (0.0s) probing aborted: 50/50 successive totally useless probings
presolving (4 rounds: 4 fast, 2 medium, 2 exhaustive):
 73 deleted vars, 165 deleted constraints, 0 added constraints, 116 tightened bounds, 0 added holes, 0 changed sides, 0 changed coefficients
 12 implications, 24 cliques
presolved problem has 132 variables (92 bin, 0 int, 0 impl, 40 cont) and 76 constraints
     12 constraints of type <soc>
     12 constraints of type <varbound>
     24 constraints of type <setppc>
     28 constraints of type <linear>
Presolving Time: 0.01
numerics/lpfeastol = 1e-08

  node  | left  |LP iter|LP it/n| mem |  dualbound   | primalbound  |  gap   
      1 |     0 |    73 |     - |1702k| 8.270922e+04 |      --      |    Inf 
F     1 |     0 |   100 |     - |1974k| 8.270922e+04 | 2.583135e+06 |3023.15%
      1 |     0 |   142 |     - |2316k| 1.144020e+05 | 2.583135e+06 |2157.95%
      1 |     0 |   142 |     - |2316k| 1.144020e+05 | 2.583135e+06 |2157.95%
      1 |     0 |   170 |     - |2318k| 1.638250e+05 | 2.583135e+06 |1476.77%
      1 |     0 |   192 |     - |2375k| 1.761867e+05 | 2.583135e+06 |1366.13%
      1 |     0 |   244 |     - |3191k| 1.863221e+05 | 2.583135e+06 |1286.38%
      1 |     0 |   277 |     - |3258k| 1.929451e+05 | 2.583135e+06 |1238.79%
      1 |     0 |   314 |     - |3264k| 1.943753e+05 | 2.583135e+06 |1228.94%
      1 |     0 |   333 |     - |3265k| 1.950811e+05 | 2.583135e+06 |1224.13%
      1 |     0 |   362 |     - |3274k| 1.952348e+05 | 2.583135e+06 |1223.09%
      1 |     0 |   365 |     - |4004k| 1.953022e+05 | 2.583135e+06 |1222.63%
      1 |     0 |   378 |     - |4004k| 1.954056e+05 | 2.583135e+06 |1221.94%
      1 |     0 |   379 |     - |4004k| 1.954094e+05 | 2.583135e+06 |1221.91%
      1 |     0 |   508 |     - |4004k| 2.110616e+05 | 2.583135e+06 |1123.88%
  node  | left  |LP iter|LP it/n| mem |  dualbound   | primalbound  |  gap   
      1 |     0 |   521 |     - |4031k| 2.116404e+05 | 2.583135e+06 |1120.53%
      1 |     0 |   530 |     - |4031k| 2.116947e+05 | 2.583135e+06 |1120.22%
      1 |     0 |   535 |     - |4031k| 2.117275e+05 | 2.583135e+06 |1120.03%
      1 |     0 |   536 |     - |4031k| 2.117299e+05 | 2.583135e+06 |1120.01%
      1 |     0 |   546 |     - |4038k| 2.119439e+05 | 2.583135e+06 |1118.78%
      1 |     0 |  3084 |     - |4083k| 2.119439e+05 | 2.583135e+06 |1118.78%
E     1 |     0 |  3114 |     - |4093k| 2.119439e+05 | 2.881748e+05 |  35.97%
      1 |     0 |  3114 |     - |4093k| 2.119439e+05 | 2.881748e+05 |  35.97%
      1 |     2 |  3114 |     - |4159k| 2.311051e+05 | 2.881748e+05 |  24.69%
*    34 |    13 |  3837 | 100.1 |4439k| 2.876651e+05 | 2.880836e+05 |   0.15%
    100 |    39 |  4076 |  35.8 |4568k| 2.876658e+05 | 2.880836e+05 |   0.15%
    200 |    73 |  4397 |  19.4 |4709k| 2.876735e+05 | 2.880836e+05 |   0.14%
C   234 |    67 |  4494 |  17.0 |4761k| 2.876735e+05 | 2.878650e+05 |   0.07%
    300 |    73 |  4625 |  13.7 |4794k| 2.876912e+05 | 2.878650e+05 |   0.06%
*   352 |    64 |  4722 |  11.9 |4867k| 2.876935e+05 | 2.878235e+05 |   0.05%
  node  | left  |LP iter|LP it/n| mem |  dualbound   | primalbound  |  gap   
    400 |    64 |  4812 |  10.7 |4968k| 2.876935e+05 | 2.878235e+05 |   0.05%
    500 |    44 |  4986 |   8.9 |5074k| 2.877151e+05 | 2.878235e+05 |   0.04%
*   503 |    40 |  4993 |   8.9 |5074k| 2.877151e+05 | 2.878105e+05 |   0.03%
    600 |    25 |  5127 |   7.7 |5142k| 2.877269e+05 | 2.878105e+05 |   0.03%

SCIP Status        : problem is solved [optimal solution found]
Solving Time (sec) : 2.39
Solving Nodes      : 645
Primal Bound       : +2.87810467276441e+05 (13 solutions)
Dual Bound         : +2.87810467276441e+05
Gap                : 0.00 %
#SOLVERNAME# SCIP_MISOCP
#SOLVER# SCIP.SCIPSolver(("limits/gap", 1.0e-5, "numerics/feastol", 1.0e-8, "limits/time", 3600.0))
#INSTANCE# sssd-strong-20-4.cbf.gz
#TIMELIMIT# 3600.0
#STATUS# Optimal
#OBJVAL# 287810.467276441
#OBJBOUND# 287810.467276441
#NODECOUNT# NaN
#TIMESOLVER# 2.39
#TIMEALL# 3.4009530544281006
#SOLUTION# [0.0,0.0,1.0,0.0,0.0,1.0,0.0,0.0,0.0,0.0,1.0,0.0,0.0,0.0,0.0,1.0,1.0,0.0,0.0,0.0,1.0,0.0,0.0,0.0,1.0,0.0,0.0,0.0,0.0,1.0,0.0,0.0,0.0,0.0,0.0,1.0,0.0,0.0,1.0,0.0,0.0,0.0,1.0,0.0,0.0,0.0,0.0,1.0,0.0,1.0,0.0,0.0,0.0,1.0,0.0,0.0,0.0,0.0,0.0,1.0,0.0,0.0,0.0,1.0,0.0,1.0,0.0,0.0,0.0,0.0,1.0,0.0,0.0,1.0,0.0,0.0,1.0,0.0,0.0,0.0,0.0,0.0,1.0,0.0,0.0,1.0,0.0,0.0,1.0,0.0,0.0,1.0,0.6454673390542977,0.8291568360746117,0.6981628797488229,0.792521492619693,0.0,0.0,0.39226991871609007,0.0,0.0,0.4533000231155712,0.0,0.0,0.4111283368551142,0.0,0.0,0.4421266343920538,0.0,0.3227336695271488,0.3227336695271488,0.1265987101691038,0.41457841803730583,0.41457841803730583,0.1879284064795202,0.3490814398744114,0.3490814398744114,0.14351727144685433,0.3962607463098464,0.3962607463098464,0.17519742911381955,0.6454673390542977,0.6454673390542977,1.6454673390542975,0.8291568360746117,0.8291568360746117,1.8291568360746115,0.6981628797488229,0.6981628797488229,1.6981628797488229,0.792521492619693,0.792521492619693,1.7925214926196928,0.6454673390542977,0.6454673390542977,0.6454673390542977,0.8291568360746117,0.8291568360746117,0.8291568360746117,0.6981628797488229,0.6981628797488229,0.6981628797488229,0.792521492619693,0.792521492619693,0.792521492619693]
